(set-logic QF_UF)
(set-info :smt-lib-version 2.0)
(set-info :category "crafted")
(set-info :status unsat)
(declare-sort I 0)
(declare-fun apply (I I) I)
(declare-fun OP1 () I)
(declare-fun OP () I)
(declare-fun E4 () I)
(declare-fun E3 () I)
(declare-fun E2 () I)
(declare-fun E1 () I)
(declare-fun E0 () I)
(declare-fun variable_0 () I)
(declare-fun variable_1 () I)
(declare-fun variable_2 () I)
(declare-fun variable_3 () I)
(declare-fun variable_4 () I)
(declare-fun variable_5 () I)
(declare-fun variable_6 () I)
(declare-fun variable_7 () I)
(declare-fun variable_8 () I)
(declare-fun variable_9 () I)
(declare-fun variable_10 () I)
(declare-fun variable_11 () I)
(declare-fun variable_12 () I)
(declare-fun variable_13 () I)
(declare-fun variable_14 () I)
(declare-fun variable_15 () I)
(declare-fun variable_16 () I)
(declare-fun variable_17 () I)
(declare-fun variable_18 () I)
(declare-fun variable_19 () I)
(declare-fun variable_20 () I)
(declare-fun variable_21 () I)
(declare-fun variable_22 () I)
(declare-fun variable_23 () I)
(declare-fun variable_24 () I)
(declare-fun variable_25 () I)
(declare-fun variable_26 () I)
(declare-fun variable_27 () I)
(declare-fun variable_28 () I)
(declare-fun variable_29 () I)
(declare-fun variable_30 () I)
(declare-fun variable_31 () I)
(declare-fun variable_32 () I)
(declare-fun variable_33 () I)
(declare-fun variable_34 () I)
(declare-fun variable_35 () I)
(declare-fun variable_36 () I)
(declare-fun variable_37 () I)
(declare-fun variable_38 () I)
(declare-fun variable_39 () I)
(declare-fun variable_40 () I)
(declare-fun variable_41 () I)
(declare-fun variable_42 () I)
(declare-fun variable_43 () I)
(declare-fun variable_44 () I)
(declare-fun variable_45 () I)
(declare-fun variable_46 () I)
(declare-fun variable_47 () I)
(declare-fun variable_48 () I)
(declare-fun variable_49 () I)
(declare-fun variable_50 () I)
(declare-fun variable_51 () I)
(declare-fun variable_52 () I)
(declare-fun variable_53 () I)
(declare-fun variable_54 () I)
(declare-fun variable_55 () I)
(declare-fun variable_56 () I)
(declare-fun variable_57 () I)
(declare-fun variable_58 () I)
(declare-fun variable_59 () I)
(declare-fun variable_60 () I)
(declare-fun variable_61 () I)
(declare-fun variable_62 () I)
(declare-fun variable_63 () I)
(declare-fun variable_64 () I)
(declare-fun variable_65 () I)
(declare-fun variable_66 () I)
(declare-fun variable_67 () I)
(declare-fun variable_68 () I)
(declare-fun variable_69 () I)
(declare-fun variable_70 () I)
(declare-fun variable_71 () I)
(declare-fun variable_72 () I)
(declare-fun variable_73 () I)
(declare-fun variable_74 () I)
(declare-fun variable_75 () I)
(declare-fun variable_76 () I)
(declare-fun variable_77 () I)
(declare-fun variable_78 () I)
(declare-fun variable_79 () I)
(declare-fun variable_80 () I)
(declare-fun variable_81 () I)
(declare-fun variable_82 () I)
(declare-fun variable_83 () I)
(declare-fun variable_84 () I)
(declare-fun variable_85 () I)
(declare-fun variable_86 () I)
(declare-fun variable_87 () I)
(declare-fun variable_88 () I)
(declare-fun variable_89 () I)
(declare-fun variable_90 () I)
(declare-fun variable_91 () I)
(declare-fun variable_92 () I)
(declare-fun variable_93 () I)
(declare-fun variable_94 () I)
(declare-fun variable_95 () I)
(declare-fun variable_96 () I)
(declare-fun variable_97 () I)
(declare-fun variable_98 () I)
(declare-fun variable_99 () I)
(declare-fun variable_100 () I)
(declare-fun variable_101 () I)
(declare-fun variable_102 () I)
(declare-fun variable_103 () I)
(declare-fun variable_104 () I)
(declare-fun variable_105 () I)
(declare-fun variable_106 () I)
(declare-fun variable_107 () I)
(declare-fun variable_108 () I)
(declare-fun variable_109 () I)
(declare-fun variable_110 () I)
(declare-fun variable_111 () I)
(declare-fun variable_112 () I)
(declare-fun variable_113 () I)
(declare-fun variable_114 () I)
(declare-fun variable_115 () I)
(declare-fun variable_116 () I)
(declare-fun variable_117 () I)
(declare-fun variable_118 () I)
(declare-fun variable_119 () I)
(declare-fun variable_120 () I)
(declare-fun variable_121 () I)
(declare-fun variable_122 () I)
(declare-fun variable_123 () I)
(declare-fun variable_124 () I)
(declare-fun variable_125 () I)
(declare-fun variable_126 () I)
(declare-fun variable_127 () I)
(declare-fun variable_128 () I)
(declare-fun variable_129 () I)
(declare-fun variable_130 () I)
(declare-fun variable_131 () I)
(declare-fun variable_132 () I)
(declare-fun variable_133 () I)
(declare-fun variable_134 () I)
(declare-fun variable_135 () I)
(declare-fun variable_136 () I)
(declare-fun variable_137 () I)
(declare-fun variable_138 () I)
(declare-fun variable_139 () I)
(declare-fun variable_140 () I)
(declare-fun variable_141 () I)
(declare-fun variable_142 () I)
(declare-fun variable_143 () I)
(declare-fun variable_144 () I)
(declare-fun variable_145 () I)
(declare-fun variable_146 () I)
(declare-fun variable_147 () I)
(declare-fun variable_148 () I)
(declare-fun variable_149 () I)
(declare-fun variable_150 () I)
(declare-fun variable_151 () I)
(declare-fun variable_152 () I)
(declare-fun variable_153 () I)
(declare-fun variable_154 () I)
(declare-fun variable_155 () I)
(declare-fun variable_156 () I)
(declare-fun variable_157 () I)
(declare-fun variable_158 () I)
(declare-fun variable_159 () I)
(declare-fun variable_160 () I)
(declare-fun variable_161 () I)
(declare-fun variable_162 () I)
(declare-fun variable_163 () I)
(declare-fun variable_164 () I)
(declare-fun variable_165 () I)
(declare-fun variable_166 () I)
(declare-fun variable_167 () I)
(declare-fun variable_168 () I)
(declare-fun variable_169 () I)
(declare-fun variable_170 () I)
(declare-fun variable_171 () I)
(declare-fun variable_172 () I)
(declare-fun variable_173 () I)
(declare-fun variable_174 () I)
(declare-fun variable_175 () I)
(declare-fun variable_176 () I)
(declare-fun variable_177 () I)
(declare-fun variable_178 () I)
(declare-fun variable_179 () I)
(declare-fun variable_180 () I)
(declare-fun variable_181 () I)
(declare-fun variable_182 () I)
(declare-fun variable_183 () I)
(declare-fun variable_184 () I)
(declare-fun variable_185 () I)
(declare-fun variable_186 () I)
(declare-fun variable_187 () I)
(declare-fun variable_188 () I)
(declare-fun variable_189 () I)
(declare-fun variable_190 () I)
(declare-fun variable_191 () I)
(declare-fun variable_192 () I)
(declare-fun variable_193 () I)
(declare-fun variable_194 () I)
(declare-fun variable_195 () I)
(declare-fun variable_196 () I)
(declare-fun variable_197 () I)
(declare-fun variable_198 () I)
(declare-fun variable_199 () I)
(declare-fun variable_200 () I)
(declare-fun variable_201 () I)
(declare-fun variable_202 () I)
(declare-fun variable_203 () I)
(declare-fun variable_204 () I)
(declare-fun variable_205 () I)
(declare-fun variable_206 () I)
(declare-fun variable_207 () I)
(declare-fun variable_208 () I)
(declare-fun variable_209 () I)
(declare-fun variable_210 () I)
(declare-fun variable_211 () I)
(declare-fun variable_212 () I)
(declare-fun variable_213 () I)
(declare-fun variable_214 () I)
(declare-fun variable_215 () I)
(declare-fun variable_216 () I)
(declare-fun variable_217 () I)
(declare-fun variable_218 () I)
(declare-fun variable_219 () I)
(declare-fun variable_220 () I)
(declare-fun variable_221 () I)
(declare-fun variable_222 () I)
(declare-fun variable_223 () I)
(declare-fun variable_224 () I)
(declare-fun variable_225 () I)
(declare-fun variable_226 () I)
(declare-fun variable_227 () I)
(declare-fun variable_228 () I)
(declare-fun variable_229 () I)
(declare-fun variable_230 () I)
(declare-fun variable_231 () I)
(declare-fun variable_232 () I)
(declare-fun variable_233 () I)
(declare-fun variable_234 () I)
(declare-fun variable_235 () I)
(declare-fun variable_236 () I)
(declare-fun variable_237 () I)
(declare-fun variable_238 () I)
(declare-fun variable_239 () I)
(declare-fun variable_240 () I)
(declare-fun variable_241 () I)
(declare-fun variable_242 () I)
(declare-fun variable_243 () I)

